7 0 7 1 7 1 7 3 11 1 11 0 9 0 7 0 7 1 7 1 7 3 11 1 9 1
7 0 7 1 7 1 7 3 11 1 11 0 9 0 7 0 7 1 7 1 7 3 11 1 9 1
25 1 9 1 12 1 9 1 12 3 16 1 16 1 14 0 12 0 9 4 
11 1 11 4 11 3 12 1 14 5 
16 1 19 3 16 0 14 0 12 3 9 0 12 2 11 1 12 0 11 0 9 1 11 1 12 1 12 4
9 1 12 1 11 1 11 0 9 1 9 0 4 1 
9 0 12 2 11 1 12 0 11 0 9 1 11 1 12 1 12 4
9 0 12 0 14 1 16 0 14 0 12 1 14 1 14 0 12 0 12 4
25 1 9 1 12 1 9 1 12 3 16 1 16 1 14 0 12 0 9 4 
11 1 11 4 11 3 12 1 14 5 
16 1 19 3 16 0 14 0 12 3 9 0 12 2 11 1 12 0 11 0 9 1 11 1 12 1 12 4
9 1 12 1 11 1 11 0 9 1 9 0 4 1 
9 0 12 2 11 1 12 0 11 0 9 1 11 1 12 1 12 4
9 0 12 0 14 1 16 0 14 0 12 1 14 1 14 0 12 0 12 4